cost: 1100.70
Route 1:           0   10   11   13   17   18   19   15   16   14   12    9    8    6    4    7    3    5    0
Route 2:           0   21   23   26   28   30   27   25   22   20    0
Route 3:           0   24   29   32   33   34   36   39   38   37   35   31   52   50   51   48   45   44   46   49   47    0
Route 4:           0   68   55   57   54   53   56   58   60   59   40   41   42   43    0
Route 5:           0   69   66   64   61   72   74   62   63   65   67    0
Route 6:           0   80   79   77   73   70   71   76   78   81   82   83   84   85   88   89   86   87   90    0
Route 7:           0   91   98   96   95   94   92   93   97  100   99    2    1   75    0
